p tw 190 34201 2 
1 3 
1 4 
1 5 
1 6 
1 7 
1 8 
1 9 
1 10 
1 11 
1 12 
1 13 
1 14 
1 15 
1 16 
1 17 
1 18 
1 19 
1 20 
1 21 
1 22 
1 23 
1 24 
1 25 
1 26 
1 27 
1 28 
1 29 
1 30 
1 31 
1 32 
1 33 
1 34 
1 35 
1 36 
1 37 
2 3 
2 4 
2 5 
2 6 
2 7 
2 8 
2 9 
2 10 
2 11 
2 12 
2 13 
2 14 
2 15 
2 16 
2 17 
2 18 
2 19 
2 20 
2 38 
2 39 
2 40 
2 41 
2 42 
2 43 
2 44 
2 45 
2 46 
2 47 
2 48 
2 49 
2 50 
2 51 
2 52 
2 53 
2 54 
3 4 
3 5 
3 6 
3 7 
3 8 
3 9 
3 10 
3 11 
3 12 
3 13 
3 14 
3 15 
3 16 
3 17 
3 18 
3 19 
3 21 
3 38 
3 55 
3 56 
3 57 
3 58 
3 59 
3 60 
3 61 
3 62 
3 63 
3 64 
3 65 
3 66 
3 67 
3 68 
3 69 
3 70 
4 5 
4 6 
4 7 
4 8 
4 9 
4 10 
4 11 
4 12 
4 13 
4 14 
4 15 
4 16 
4 17 
4 18 
4 19 
4 22 
4 39 
4 55 
4 71 
4 72 
4 73 
4 74 
4 75 
4 76 
4 77 
4 78 
4 79 
4 80 
4 81 
4 82 
4 83 
4 84 
4 85 
5 6 
5 7 
5 8 
5 9 
5 10 
5 11 
5 12 
5 13 
5 14 
5 15 
5 16 
5 17 
5 18 
5 19 
5 23 
5 40 
5 56 
5 71 
5 86 
5 87 
5 88 
5 89 
5 90 
5 91 
5 92 
5 93 
5 94 
5 95 
5 96 
5 97 
5 98 
5 99 
6 7 
6 8 
6 9 
6 10 
6 11 
6 12 
6 13 
6 14 
6 15 
6 16 
6 17 
6 18 
6 19 
6 24 
6 41 
6 57 
6 72 
6 86 
6 100 
6 101 
6 102 
6 103 
6 104 
6 105 
6 106 
6 107 
6 108 
6 109 
6 110 
6 111 
6 112 
7 8 
7 9 
7 10 
7 11 
7 12 
7 13 
7 14 
7 15 
7 16 
7 17 
7 18 
7 19 
7 25 
7 42 
7 58 
7 73 
7 87 
7 100 
7 113 
7 114 
7 115 
7 116 
7 117 
7 118 
7 119 
7 120 
7 121 
7 122 
7 123 
7 124 
8 9 
8 10 
8 11 
8 12 
8 13 
8 14 
8 15 
8 16 
8 17 
8 18 
8 19 
8 26 
8 43 
8 59 
8 74 
8 88 
8 101 
8 113 
8 125 
8 126 
8 127 
8 128 
8 129 
8 130 
8 131 
8 132 
8 133 
8 134 
8 135 
9 10 
9 11 
9 12 
9 13 
9 14 
9 15 
9 16 
9 17 
9 18 
9 19 
9 27 
9 44 
9 60 
9 75 
9 89 
9 102 
9 114 
9 125 
9 136 
9 137 
9 138 
9 139 
9 140 
9 141 
9 142 
9 143 
9 144 
9 145 
10 11 
10 12 
10 13 
10 14 
10 15 
10 16 
10 17 
10 18 
10 19 
10 28 
10 45 
10 61 
10 76 
10 90 
10 103 
10 115 
10 126 
10 136 
10 146 
10 147 
10 148 
10 149 
10 150 
10 151 
10 152 
10 153 
10 154 
11 12 
11 13 
11 14 
11 15 
11 16 
11 17 
11 18 
11 19 
11 29 
11 46 
11 62 
11 77 
11 91 
11 104 
11 116 
11 127 
11 137 
11 146 
11 155 
11 156 
11 157 
11 158 
11 159 
11 160 
11 161 
11 162 
12 13 
12 14 
12 15 
12 16 
12 17 
12 18 
12 19 
12 30 
12 47 
12 63 
12 78 
12 92 
12 105 
12 117 
12 128 
12 138 
12 147 
12 155 
12 163 
12 164 
12 165 
12 166 
12 167 
12 168 
12 169 
13 14 
13 15 
13 16 
13 17 
13 18 
13 19 
13 31 
13 48 
13 64 
13 79 
13 93 
13 106 
13 118 
13 129 
13 139 
13 148 
13 156 
13 163 
13 170 
13 171 
13 172 
13 173 
13 174 
13 175 
14 15 
14 16 
14 17 
14 18 
14 19 
14 32 
14 49 
14 65 
14 80 
14 94 
14 107 
14 119 
14 130 
14 140 
14 149 
14 157 
14 164 
14 170 
14 176 
14 177 
14 178 
14 179 
14 180 
15 16 
15 17 
15 18 
15 19 
15 33 
15 50 
15 66 
15 81 
15 95 
15 108 
15 120 
15 131 
15 141 
15 150 
15 158 
15 165 
15 171 
15 176 
15 181 
15 182 
15 183 
15 184 
16 17 
16 18 
16 19 
16 34 
16 51 
16 67 
16 82 
16 96 
16 109 
16 121 
16 132 
16 142 
16 151 
16 159 
16 166 
16 172 
16 177 
16 181 
16 185 
16 186 
16 187 
17 18 
17 19 
17 35 
17 52 
17 68 
17 83 
17 97 
17 110 
17 122 
17 133 
17 143 
17 152 
17 160 
17 167 
17 173 
17 178 
17 182 
17 185 
17 188 
17 189 
18 19 
18 36 
18 53 
18 69 
18 84 
18 98 
18 111 
18 123 
18 134 
18 144 
18 153 
18 161 
18 168 
18 174 
18 179 
18 183 
18 186 
18 188 
18 190 
19 37 
19 54 
19 70 
19 85 
19 99 
19 112 
19 124 
19 135 
19 145 
19 154 
19 162 
19 169 
19 175 
19 180 
19 184 
19 187 
19 189 
19 190 
20 21 
20 22 
20 23 
20 24 
20 25 
20 26 
20 27 
20 28 
20 29 
20 30 
20 31 
20 32 
20 33 
20 34 
20 35 
20 36 
20 37 
20 38 
20 39 
20 40 
20 41 
20 42 
20 43 
20 44 
20 45 
20 46 
20 47 
20 48 
20 49 
20 50 
20 51 
20 52 
20 53 
20 54 
21 22 
21 23 
21 24 
21 25 
21 26 
21 27 
21 28 
21 29 
21 30 
21 31 
21 32 
21 33 
21 34 
21 35 
21 36 
21 37 
21 38 
21 55 
21 56 
21 57 
21 58 
21 59 
21 60 
21 61 
21 62 
21 63 
21 64 
21 65 
21 66 
21 67 
21 68 
21 69 
21 70 
22 23 
22 24 
22 25 
22 26 
22 27 
22 28 
22 29 
22 30 
22 31 
22 32 
22 33 
22 34 
22 35 
22 36 
22 37 
22 39 
22 55 
22 71 
22 72 
22 73 
22 74 
22 75 
22 76 
22 77 
22 78 
22 79 
22 80 
22 81 
22 82 
22 83 
22 84 
22 85 
23 24 
23 25 
23 26 
23 27 
23 28 
23 29 
23 30 
23 31 
23 32 
23 33 
23 34 
23 35 
23 36 
23 37 
23 40 
23 56 
23 71 
23 86 
23 87 
23 88 
23 89 
23 90 
23 91 
23 92 
23 93 
23 94 
23 95 
23 96 
23 97 
23 98 
23 99 
24 25 
24 26 
24 27 
24 28 
24 29 
24 30 
24 31 
24 32 
24 33 
24 34 
24 35 
24 36 
24 37 
24 41 
24 57 
24 72 
24 86 
24 100 
24 101 
24 102 
24 103 
24 104 
24 105 
24 106 
24 107 
24 108 
24 109 
24 110 
24 111 
24 112 
25 26 
25 27 
25 28 
25 29 
25 30 
25 31 
25 32 
25 33 
25 34 
25 35 
25 36 
25 37 
25 42 
25 58 
25 73 
25 87 
25 100 
25 113 
25 114 
25 115 
25 116 
25 117 
25 118 
25 119 
25 120 
25 121 
25 122 
25 123 
25 124 
26 27 
26 28 
26 29 
26 30 
26 31 
26 32 
26 33 
26 34 
26 35 
26 36 
26 37 
26 43 
26 59 
26 74 
26 88 
26 101 
26 113 
26 125 
26 126 
26 127 
26 128 
26 129 
26 130 
26 131 
26 132 
26 133 
26 134 
26 135 
27 28 
27 29 
27 30 
27 31 
27 32 
27 33 
27 34 
27 35 
27 36 
27 37 
27 44 
27 60 
27 75 
27 89 
27 102 
27 114 
27 125 
27 136 
27 137 
27 138 
27 139 
27 140 
27 141 
27 142 
27 143 
27 144 
27 145 
28 29 
28 30 
28 31 
28 32 
28 33 
28 34 
28 35 
28 36 
28 37 
28 45 
28 61 
28 76 
28 90 
28 103 
28 115 
28 126 
28 136 
28 146 
28 147 
28 148 
28 149 
28 150 
28 151 
28 152 
28 153 
28 154 
29 30 
29 31 
29 32 
29 33 
29 34 
29 35 
29 36 
29 37 
29 46 
29 62 
29 77 
29 91 
29 104 
29 116 
29 127 
29 137 
29 146 
29 155 
29 156 
29 157 
29 158 
29 159 
29 160 
29 161 
29 162 
30 31 
30 32 
30 33 
30 34 
30 35 
30 36 
30 37 
30 47 
30 63 
30 78 
30 92 
30 105 
30 117 
30 128 
30 138 
30 147 
30 155 
30 163 
30 164 
30 165 
30 166 
30 167 
30 168 
30 169 
31 32 
31 33 
31 34 
31 35 
31 36 
31 37 
31 48 
31 64 
31 79 
31 93 
31 106 
31 118 
31 129 
31 139 
31 148 
31 156 
31 163 
31 170 
31 171 
31 172 
31 173 
31 174 
31 175 
32 33 
32 34 
32 35 
32 36 
32 37 
32 49 
32 65 
32 80 
32 94 
32 107 
32 119 
32 130 
32 140 
32 149 
32 157 
32 164 
32 170 
32 176 
32 177 
32 178 
32 179 
32 180 
33 34 
33 35 
33 36 
33 37 
33 50 
33 66 
33 81 
33 95 
33 108 
33 120 
33 131 
33 141 
33 150 
33 158 
33 165 
33 171 
33 176 
33 181 
33 182 
33 183 
33 184 
34 35 
34 36 
34 37 
34 51 
34 67 
34 82 
34 96 
34 109 
34 121 
34 132 
34 142 
34 151 
34 159 
34 166 
34 172 
34 177 
34 181 
34 185 
34 186 
34 187 
35 36 
35 37 
35 52 
35 68 
35 83 
35 97 
35 110 
35 122 
35 133 
35 143 
35 152 
35 160 
35 167 
35 173 
35 178 
35 182 
35 185 
35 188 
35 189 
36 37 
36 53 
36 69 
36 84 
36 98 
36 111 
36 123 
36 134 
36 144 
36 153 
36 161 
36 168 
36 174 
36 179 
36 183 
36 186 
36 188 
36 190 
37 54 
37 70 
37 85 
37 99 
37 112 
37 124 
37 135 
37 145 
37 154 
37 162 
37 169 
37 175 
37 180 
37 184 
37 187 
37 189 
37 190 
38 39 
38 40 
38 41 
38 42 
38 43 
38 44 
38 45 
38 46 
38 47 
38 48 
38 49 
38 50 
38 51 
38 52 
38 53 
38 54 
38 55 
38 56 
38 57 
38 58 
38 59 
38 60 
38 61 
38 62 
38 63 
38 64 
38 65 
38 66 
38 67 
38 68 
38 69 
38 70 
39 40 
39 41 
39 42 
39 43 
39 44 
39 45 
39 46 
39 47 
39 48 
39 49 
39 50 
39 51 
39 52 
39 53 
39 54 
39 55 
39 71 
39 72 
39 73 
39 74 
39 75 
39 76 
39 77 
39 78 
39 79 
39 80 
39 81 
39 82 
39 83 
39 84 
39 85 
40 41 
40 42 
40 43 
40 44 
40 45 
40 46 
40 47 
40 48 
40 49 
40 50 
40 51 
40 52 
40 53 
40 54 
40 56 
40 71 
40 86 
40 87 
40 88 
40 89 
40 90 
40 91 
40 92 
40 93 
40 94 
40 95 
40 96 
40 97 
40 98 
40 99 
41 42 
41 43 
41 44 
41 45 
41 46 
41 47 
41 48 
41 49 
41 50 
41 51 
41 52 
41 53 
41 54 
41 57 
41 72 
41 86 
41 100 
41 101 
41 102 
41 103 
41 104 
41 105 
41 106 
41 107 
41 108 
41 109 
41 110 
41 111 
41 112 
42 43 
42 44 
42 45 
42 46 
42 47 
42 48 
42 49 
42 50 
42 51 
42 52 
42 53 
42 54 
42 58 
42 73 
42 87 
42 100 
42 113 
42 114 
42 115 
42 116 
42 117 
42 118 
42 119 
42 120 
42 121 
42 122 
42 123 
42 124 
43 44 
43 45 
43 46 
43 47 
43 48 
43 49 
43 50 
43 51 
43 52 
43 53 
43 54 
43 59 
43 74 
43 88 
43 101 
43 113 
43 125 
43 126 
43 127 
43 128 
43 129 
43 130 
43 131 
43 132 
43 133 
43 134 
43 135 
44 45 
44 46 
44 47 
44 48 
44 49 
44 50 
44 51 
44 52 
44 53 
44 54 
44 60 
44 75 
44 89 
44 102 
44 114 
44 125 
44 136 
44 137 
44 138 
44 139 
44 140 
44 141 
44 142 
44 143 
44 144 
44 145 
45 46 
45 47 
45 48 
45 49 
45 50 
45 51 
45 52 
45 53 
45 54 
45 61 
45 76 
45 90 
45 103 
45 115 
45 126 
45 136 
45 146 
45 147 
45 148 
45 149 
45 150 
45 151 
45 152 
45 153 
45 154 
46 47 
46 48 
46 49 
46 50 
46 51 
46 52 
46 53 
46 54 
46 62 
46 77 
46 91 
46 104 
46 116 
46 127 
46 137 
46 146 
46 155 
46 156 
46 157 
46 158 
46 159 
46 160 
46 161 
46 162 
47 48 
47 49 
47 50 
47 51 
47 52 
47 53 
47 54 
47 63 
47 78 
47 92 
47 105 
47 117 
47 128 
47 138 
47 147 
47 155 
47 163 
47 164 
47 165 
47 166 
47 167 
47 168 
47 169 
48 49 
48 50 
48 51 
48 52 
48 53 
48 54 
48 64 
48 79 
48 93 
48 106 
48 118 
48 129 
48 139 
48 148 
48 156 
48 163 
48 170 
48 171 
48 172 
48 173 
48 174 
48 175 
49 50 
49 51 
49 52 
49 53 
49 54 
49 65 
49 80 
49 94 
49 107 
49 119 
49 130 
49 140 
49 149 
49 157 
49 164 
49 170 
49 176 
49 177 
49 178 
49 179 
49 180 
50 51 
50 52 
50 53 
50 54 
50 66 
50 81 
50 95 
50 108 
50 120 
50 131 
50 141 
50 150 
50 158 
50 165 
50 171 
50 176 
50 181 
50 182 
50 183 
50 184 
51 52 
51 53 
51 54 
51 67 
51 82 
51 96 
51 109 
51 121 
51 132 
51 142 
51 151 
51 159 
51 166 
51 172 
51 177 
51 181 
51 185 
51 186 
51 187 
52 53 
52 54 
52 68 
52 83 
52 97 
52 110 
52 122 
52 133 
52 143 
52 152 
52 160 
52 167 
52 173 
52 178 
52 182 
52 185 
52 188 
52 189 
53 54 
53 69 
53 84 
53 98 
53 111 
53 123 
53 134 
53 144 
53 153 
53 161 
53 168 
53 174 
53 179 
53 183 
53 186 
53 188 
53 190 
54 70 
54 85 
54 99 
54 112 
54 124 
54 135 
54 145 
54 154 
54 162 
54 169 
54 175 
54 180 
54 184 
54 187 
54 189 
54 190 
55 56 
55 57 
55 58 
55 59 
55 60 
55 61 
55 62 
55 63 
55 64 
55 65 
55 66 
55 67 
55 68 
55 69 
55 70 
55 71 
55 72 
55 73 
55 74 
55 75 
55 76 
55 77 
55 78 
55 79 
55 80 
55 81 
55 82 
55 83 
55 84 
55 85 
56 57 
56 58 
56 59 
56 60 
56 61 
56 62 
56 63 
56 64 
56 65 
56 66 
56 67 
56 68 
56 69 
56 70 
56 71 
56 86 
56 87 
56 88 
56 89 
56 90 
56 91 
56 92 
56 93 
56 94 
56 95 
56 96 
56 97 
56 98 
56 99 
57 58 
57 59 
57 60 
57 61 
57 62 
57 63 
57 64 
57 65 
57 66 
57 67 
57 68 
57 69 
57 70 
57 72 
57 86 
57 100 
57 101 
57 102 
57 103 
57 104 
57 105 
57 106 
57 107 
57 108 
57 109 
57 110 
57 111 
57 112 
58 59 
58 60 
58 61 
58 62 
58 63 
58 64 
58 65 
58 66 
58 67 
58 68 
58 69 
58 70 
58 73 
58 87 
58 100 
58 113 
58 114 
58 115 
58 116 
58 117 
58 118 
58 119 
58 120 
58 121 
58 122 
58 123 
58 124 
59 60 
59 61 
59 62 
59 63 
59 64 
59 65 
59 66 
59 67 
59 68 
59 69 
59 70 
59 74 
59 88 
59 101 
59 113 
59 125 
59 126 
59 127 
59 128 
59 129 
59 130 
59 131 
59 132 
59 133 
59 134 
59 135 
60 61 
60 62 
60 63 
60 64 
60 65 
60 66 
60 67 
60 68 
60 69 
60 70 
60 75 
60 89 
60 102 
60 114 
60 125 
60 136 
60 137 
60 138 
60 139 
60 140 
60 141 
60 142 
60 143 
60 144 
60 145 
61 62 
61 63 
61 64 
61 65 
61 66 
61 67 
61 68 
61 69 
61 70 
61 76 
61 90 
61 103 
61 115 
61 126 
61 136 
61 146 
61 147 
61 148 
61 149 
61 150 
61 151 
61 152 
61 153 
61 154 
62 63 
62 64 
62 65 
62 66 
62 67 
62 68 
62 69 
62 70 
62 77 
62 91 
62 104 
62 116 
62 127 
62 137 
62 146 
62 155 
62 156 
62 157 
62 158 
62 159 
62 160 
62 161 
62 162 
63 64 
63 65 
63 66 
63 67 
63 68 
63 69 
63 70 
63 78 
63 92 
63 105 
63 117 
63 128 
63 138 
63 147 
63 155 
63 163 
63 164 
63 165 
63 166 
63 167 
63 168 
63 169 
64 65 
64 66 
64 67 
64 68 
64 69 
64 70 
64 79 
64 93 
64 106 
64 118 
64 129 
64 139 
64 148 
64 156 
64 163 
64 170 
64 171 
64 172 
64 173 
64 174 
64 175 
65 66 
65 67 
65 68 
65 69 
65 70 
65 80 
65 94 
65 107 
65 119 
65 130 
65 140 
65 149 
65 157 
65 164 
65 170 
65 176 
65 177 
65 178 
65 179 
65 180 
66 67 
66 68 
66 69 
66 70 
66 81 
66 95 
66 108 
66 120 
66 131 
66 141 
66 150 
66 158 
66 165 
66 171 
66 176 
66 181 
66 182 
66 183 
66 184 
67 68 
67 69 
67 70 
67 82 
67 96 
67 109 
67 121 
67 132 
67 142 
67 151 
67 159 
67 166 
67 172 
67 177 
67 181 
67 185 
67 186 
67 187 
68 69 
68 70 
68 83 
68 97 
68 110 
68 122 
68 133 
68 143 
68 152 
68 160 
68 167 
68 173 
68 178 
68 182 
68 185 
68 188 
68 189 
69 70 
69 84 
69 98 
69 111 
69 123 
69 134 
69 144 
69 153 
69 161 
69 168 
69 174 
69 179 
69 183 
69 186 
69 188 
69 190 
70 85 
70 99 
70 112 
70 124 
70 135 
70 145 
70 154 
70 162 
70 169 
70 175 
70 180 
70 184 
70 187 
70 189 
70 190 
71 72 
71 73 
71 74 
71 75 
71 76 
71 77 
71 78 
71 79 
71 80 
71 81 
71 82 
71 83 
71 84 
71 85 
71 86 
71 87 
71 88 
71 89 
71 90 
71 91 
71 92 
71 93 
71 94 
71 95 
71 96 
71 97 
71 98 
71 99 
72 73 
72 74 
72 75 
72 76 
72 77 
72 78 
72 79 
72 80 
72 81 
72 82 
72 83 
72 84 
72 85 
72 86 
72 100 
72 101 
72 102 
72 103 
72 104 
72 105 
72 106 
72 107 
72 108 
72 109 
72 110 
72 111 
72 112 
73 74 
73 75 
73 76 
73 77 
73 78 
73 79 
73 80 
73 81 
73 82 
73 83 
73 84 
73 85 
73 87 
73 100 
73 113 
73 114 
73 115 
73 116 
73 117 
73 118 
73 119 
73 120 
73 121 
73 122 
73 123 
73 124 
74 75 
74 76 
74 77 
74 78 
74 79 
74 80 
74 81 
74 82 
74 83 
74 84 
74 85 
74 88 
74 101 
74 113 
74 125 
74 126 
74 127 
74 128 
74 129 
74 130 
74 131 
74 132 
74 133 
74 134 
74 135 
75 76 
75 77 
75 78 
75 79 
75 80 
75 81 
75 82 
75 83 
75 84 
75 85 
75 89 
75 102 
75 114 
75 125 
75 136 
75 137 
75 138 
75 139 
75 140 
75 141 
75 142 
75 143 
75 144 
75 145 
76 77 
76 78 
76 79 
76 80 
76 81 
76 82 
76 83 
76 84 
76 85 
76 90 
76 103 
76 115 
76 126 
76 136 
76 146 
76 147 
76 148 
76 149 
76 150 
76 151 
76 152 
76 153 
76 154 
77 78 
77 79 
77 80 
77 81 
77 82 
77 83 
77 84 
77 85 
77 91 
77 104 
77 116 
77 127 
77 137 
77 146 
77 155 
77 156 
77 157 
77 158 
77 159 
77 160 
77 161 
77 162 
78 79 
78 80 
78 81 
78 82 
78 83 
78 84 
78 85 
78 92 
78 105 
78 117 
78 128 
78 138 
78 147 
78 155 
78 163 
78 164 
78 165 
78 166 
78 167 
78 168 
78 169 
79 80 
79 81 
79 82 
79 83 
79 84 
79 85 
79 93 
79 106 
79 118 
79 129 
79 139 
79 148 
79 156 
79 163 
79 170 
79 171 
79 172 
79 173 
79 174 
79 175 
80 81 
80 82 
80 83 
80 84 
80 85 
80 94 
80 107 
80 119 
80 130 
80 140 
80 149 
80 157 
80 164 
80 170 
80 176 
80 177 
80 178 
80 179 
80 180 
81 82 
81 83 
81 84 
81 85 
81 95 
81 108 
81 120 
81 131 
81 141 
81 150 
81 158 
81 165 
81 171 
81 176 
81 181 
81 182 
81 183 
81 184 
82 83 
82 84 
82 85 
82 96 
82 109 
82 121 
82 132 
82 142 
82 151 
82 159 
82 166 
82 172 
82 177 
82 181 
82 185 
82 186 
82 187 
83 84 
83 85 
83 97 
83 110 
83 122 
83 133 
83 143 
83 152 
83 160 
83 167 
83 173 
83 178 
83 182 
83 185 
83 188 
83 189 
84 85 
84 98 
84 111 
84 123 
84 134 
84 144 
84 153 
84 161 
84 168 
84 174 
84 179 
84 183 
84 186 
84 188 
84 190 
85 99 
85 112 
85 124 
85 135 
85 145 
85 154 
85 162 
85 169 
85 175 
85 180 
85 184 
85 187 
85 189 
85 190 
86 87 
86 88 
86 89 
86 90 
86 91 
86 92 
86 93 
86 94 
86 95 
86 96 
86 97 
86 98 
86 99 
86 100 
86 101 
86 102 
86 103 
86 104 
86 105 
86 106 
86 107 
86 108 
86 109 
86 110 
86 111 
86 112 
87 88 
87 89 
87 90 
87 91 
87 92 
87 93 
87 94 
87 95 
87 96 
87 97 
87 98 
87 99 
87 100 
87 113 
87 114 
87 115 
87 116 
87 117 
87 118 
87 119 
87 120 
87 121 
87 122 
87 123 
87 124 
88 89 
88 90 
88 91 
88 92 
88 93 
88 94 
88 95 
88 96 
88 97 
88 98 
88 99 
88 101 
88 113 
88 125 
88 126 
88 127 
88 128 
88 129 
88 130 
88 131 
88 132 
88 133 
88 134 
88 135 
89 90 
89 91 
89 92 
89 93 
89 94 
89 95 
89 96 
89 97 
89 98 
89 99 
89 102 
89 114 
89 125 
89 136 
89 137 
89 138 
89 139 
89 140 
89 141 
89 142 
89 143 
89 144 
89 145 
90 91 
90 92 
90 93 
90 94 
90 95 
90 96 
90 97 
90 98 
90 99 
90 103 
90 115 
90 126 
90 136 
90 146 
90 147 
90 148 
90 149 
90 150 
90 151 
90 152 
90 153 
90 154 
91 92 
91 93 
91 94 
91 95 
91 96 
91 97 
91 98 
91 99 
91 104 
91 116 
91 127 
91 137 
91 146 
91 155 
91 156 
91 157 
91 158 
91 159 
91 160 
91 161 
91 162 
92 93 
92 94 
92 95 
92 96 
92 97 
92 98 
92 99 
92 105 
92 117 
92 128 
92 138 
92 147 
92 155 
92 163 
92 164 
92 165 
92 166 
92 167 
92 168 
92 169 
93 94 
93 95 
93 96 
93 97 
93 98 
93 99 
93 106 
93 118 
93 129 
93 139 
93 148 
93 156 
93 163 
93 170 
93 171 
93 172 
93 173 
93 174 
93 175 
94 95 
94 96 
94 97 
94 98 
94 99 
94 107 
94 119 
94 130 
94 140 
94 149 
94 157 
94 164 
94 170 
94 176 
94 177 
94 178 
94 179 
94 180 
95 96 
95 97 
95 98 
95 99 
95 108 
95 120 
95 131 
95 141 
95 150 
95 158 
95 165 
95 171 
95 176 
95 181 
95 182 
95 183 
95 184 
96 97 
96 98 
96 99 
96 109 
96 121 
96 132 
96 142 
96 151 
96 159 
96 166 
96 172 
96 177 
96 181 
96 185 
96 186 
96 187 
97 98 
97 99 
97 110 
97 122 
97 133 
97 143 
97 152 
97 160 
97 167 
97 173 
97 178 
97 182 
97 185 
97 188 
97 189 
98 99 
98 111 
98 123 
98 134 
98 144 
98 153 
98 161 
98 168 
98 174 
98 179 
98 183 
98 186 
98 188 
98 190 
99 112 
99 124 
99 135 
99 145 
99 154 
99 162 
99 169 
99 175 
99 180 
99 184 
99 187 
99 189 
99 190 
100 101 
100 102 
100 103 
100 104 
100 105 
100 106 
100 107 
100 108 
100 109 
100 110 
100 111 
100 112 
100 113 
100 114 
100 115 
100 116 
100 117 
100 118 
100 119 
100 120 
100 121 
100 122 
100 123 
100 124 
101 102 
101 103 
101 104 
101 105 
101 106 
101 107 
101 108 
101 109 
101 110 
101 111 
101 112 
101 113 
101 125 
101 126 
101 127 
101 128 
101 129 
101 130 
101 131 
101 132 
101 133 
101 134 
101 135 
102 103 
102 104 
102 105 
102 106 
102 107 
102 108 
102 109 
102 110 
102 111 
102 112 
102 114 
102 125 
102 136 
102 137 
102 138 
102 139 
102 140 
102 141 
102 142 
102 143 
102 144 
102 145 
103 104 
103 105 
103 106 
103 107 
103 108 
103 109 
103 110 
103 111 
103 112 
103 115 
103 126 
103 136 
103 146 
103 147 
103 148 
103 149 
103 150 
103 151 
103 152 
103 153 
103 154 
104 105 
104 106 
104 107 
104 108 
104 109 
104 110 
104 111 
104 112 
104 116 
104 127 
104 137 
104 146 
104 155 
104 156 
104 157 
104 158 
104 159 
104 160 
104 161 
104 162 
105 106 
105 107 
105 108 
105 109 
105 110 
105 111 
105 112 
105 117 
105 128 
105 138 
105 147 
105 155 
105 163 
105 164 
105 165 
105 166 
105 167 
105 168 
105 169 
106 107 
106 108 
106 109 
106 110 
106 111 
106 112 
106 118 
106 129 
106 139 
106 148 
106 156 
106 163 
106 170 
106 171 
106 172 
106 173 
106 174 
106 175 
107 108 
107 109 
107 110 
107 111 
107 112 
107 119 
107 130 
107 140 
107 149 
107 157 
107 164 
107 170 
107 176 
107 177 
107 178 
107 179 
107 180 
108 109 
108 110 
108 111 
108 112 
108 120 
108 131 
108 141 
108 150 
108 158 
108 165 
108 171 
108 176 
108 181 
108 182 
108 183 
108 184 
109 110 
109 111 
109 112 
109 121 
109 132 
109 142 
109 151 
109 159 
109 166 
109 172 
109 177 
109 181 
109 185 
109 186 
109 187 
110 111 
110 112 
110 122 
110 133 
110 143 
110 152 
110 160 
110 167 
110 173 
110 178 
110 182 
110 185 
110 188 
110 189 
111 112 
111 123 
111 134 
111 144 
111 153 
111 161 
111 168 
111 174 
111 179 
111 183 
111 186 
111 188 
111 190 
112 124 
112 135 
112 145 
112 154 
112 162 
112 169 
112 175 
112 180 
112 184 
112 187 
112 189 
112 190 
113 114 
113 115 
113 116 
113 117 
113 118 
113 119 
113 120 
113 121 
113 122 
113 123 
113 124 
113 125 
113 126 
113 127 
113 128 
113 129 
113 130 
113 131 
113 132 
113 133 
113 134 
113 135 
114 115 
114 116 
114 117 
114 118 
114 119 
114 120 
114 121 
114 122 
114 123 
114 124 
114 125 
114 136 
114 137 
114 138 
114 139 
114 140 
114 141 
114 142 
114 143 
114 144 
114 145 
115 116 
115 117 
115 118 
115 119 
115 120 
115 121 
115 122 
115 123 
115 124 
115 126 
115 136 
115 146 
115 147 
115 148 
115 149 
115 150 
115 151 
115 152 
115 153 
115 154 
116 117 
116 118 
116 119 
116 120 
116 121 
116 122 
116 123 
116 124 
116 127 
116 137 
116 146 
116 155 
116 156 
116 157 
116 158 
116 159 
116 160 
116 161 
116 162 
117 118 
117 119 
117 120 
117 121 
117 122 
117 123 
117 124 
117 128 
117 138 
117 147 
117 155 
117 163 
117 164 
117 165 
117 166 
117 167 
117 168 
117 169 
118 119 
118 120 
118 121 
118 122 
118 123 
118 124 
118 129 
118 139 
118 148 
118 156 
118 163 
118 170 
118 171 
118 172 
118 173 
118 174 
118 175 
119 120 
119 121 
119 122 
119 123 
119 124 
119 130 
119 140 
119 149 
119 157 
119 164 
119 170 
119 176 
119 177 
119 178 
119 179 
119 180 
120 121 
120 122 
120 123 
120 124 
120 131 
120 141 
120 150 
120 158 
120 165 
120 171 
120 176 
120 181 
120 182 
120 183 
120 184 
121 122 
121 123 
121 124 
121 132 
121 142 
121 151 
121 159 
121 166 
121 172 
121 177 
121 181 
121 185 
121 186 
121 187 
122 123 
122 124 
122 133 
122 143 
122 152 
122 160 
122 167 
122 173 
122 178 
122 182 
122 185 
122 188 
122 189 
123 124 
123 134 
123 144 
123 153 
123 161 
123 168 
123 174 
123 179 
123 183 
123 186 
123 188 
123 190 
124 135 
124 145 
124 154 
124 162 
124 169 
124 175 
124 180 
124 184 
124 187 
124 189 
124 190 
125 126 
125 127 
125 128 
125 129 
125 130 
125 131 
125 132 
125 133 
125 134 
125 135 
125 136 
125 137 
125 138 
125 139 
125 140 
125 141 
125 142 
125 143 
125 144 
125 145 
126 127 
126 128 
126 129 
126 130 
126 131 
126 132 
126 133 
126 134 
126 135 
126 136 
126 146 
126 147 
126 148 
126 149 
126 150 
126 151 
126 152 
126 153 
126 154 
127 128 
127 129 
127 130 
127 131 
127 132 
127 133 
127 134 
127 135 
127 137 
127 146 
127 155 
127 156 
127 157 
127 158 
127 159 
127 160 
127 161 
127 162 
128 129 
128 130 
128 131 
128 132 
128 133 
128 134 
128 135 
128 138 
128 147 
128 155 
128 163 
128 164 
128 165 
128 166 
128 167 
128 168 
128 169 
129 130 
129 131 
129 132 
129 133 
129 134 
129 135 
129 139 
129 148 
129 156 
129 163 
129 170 
129 171 
129 172 
129 173 
129 174 
129 175 
130 131 
130 132 
130 133 
130 134 
130 135 
130 140 
130 149 
130 157 
130 164 
130 170 
130 176 
130 177 
130 178 
130 179 
130 180 
131 132 
131 133 
131 134 
131 135 
131 141 
131 150 
131 158 
131 165 
131 171 
131 176 
131 181 
131 182 
131 183 
131 184 
132 133 
132 134 
132 135 
132 142 
132 151 
132 159 
132 166 
132 172 
132 177 
132 181 
132 185 
132 186 
132 187 
133 134 
133 135 
133 143 
133 152 
133 160 
133 167 
133 173 
133 178 
133 182 
133 185 
133 188 
133 189 
134 135 
134 144 
134 153 
134 161 
134 168 
134 174 
134 179 
134 183 
134 186 
134 188 
134 190 
135 145 
135 154 
135 162 
135 169 
135 175 
135 180 
135 184 
135 187 
135 189 
135 190 
136 137 
136 138 
136 139 
136 140 
136 141 
136 142 
136 143 
136 144 
136 145 
136 146 
136 147 
136 148 
136 149 
136 150 
136 151 
136 152 
136 153 
136 154 
137 138 
137 139 
137 140 
137 141 
137 142 
137 143 
137 144 
137 145 
137 146 
137 155 
137 156 
137 157 
137 158 
137 159 
137 160 
137 161 
137 162 
138 139 
138 140 
138 141 
138 142 
138 143 
138 144 
138 145 
138 147 
138 155 
138 163 
138 164 
138 165 
138 166 
138 167 
138 168 
138 169 
139 140 
139 141 
139 142 
139 143 
139 144 
139 145 
139 148 
139 156 
139 163 
139 170 
139 171 
139 172 
139 173 
139 174 
139 175 
140 141 
140 142 
140 143 
140 144 
140 145 
140 149 
140 157 
140 164 
140 170 
140 176 
140 177 
140 178 
140 179 
140 180 
141 142 
141 143 
141 144 
141 145 
141 150 
141 158 
141 165 
141 171 
141 176 
141 181 
141 182 
141 183 
141 184 
142 143 
142 144 
142 145 
142 151 
142 159 
142 166 
142 172 
142 177 
142 181 
142 185 
142 186 
142 187 
143 144 
143 145 
143 152 
143 160 
143 167 
143 173 
143 178 
143 182 
143 185 
143 188 
143 189 
144 145 
144 153 
144 161 
144 168 
144 174 
144 179 
144 183 
144 186 
144 188 
144 190 
145 154 
145 162 
145 169 
145 175 
145 180 
145 184 
145 187 
145 189 
145 190 
146 147 
146 148 
146 149 
146 150 
146 151 
146 152 
146 153 
146 154 
146 155 
146 156 
146 157 
146 158 
146 159 
146 160 
146 161 
146 162 
147 148 
147 149 
147 150 
147 151 
147 152 
147 153 
147 154 
147 155 
147 163 
147 164 
147 165 
147 166 
147 167 
147 168 
147 169 
148 149 
148 150 
148 151 
148 152 
148 153 
148 154 
148 156 
148 163 
148 170 
148 171 
148 172 
148 173 
148 174 
148 175 
149 150 
149 151 
149 152 
149 153 
149 154 
149 157 
149 164 
149 170 
149 176 
149 177 
149 178 
149 179 
149 180 
150 151 
150 152 
150 153 
150 154 
150 158 
150 165 
150 171 
150 176 
150 181 
150 182 
150 183 
150 184 
151 152 
151 153 
151 154 
151 159 
151 166 
151 172 
151 177 
151 181 
151 185 
151 186 
151 187 
152 153 
152 154 
152 160 
152 167 
152 173 
152 178 
152 182 
152 185 
152 188 
152 189 
153 154 
153 161 
153 168 
153 174 
153 179 
153 183 
153 186 
153 188 
153 190 
154 162 
154 169 
154 175 
154 180 
154 184 
154 187 
154 189 
154 190 
155 156 
155 157 
155 158 
155 159 
155 160 
155 161 
155 162 
155 163 
155 164 
155 165 
155 166 
155 167 
155 168 
155 169 
156 157 
156 158 
156 159 
156 160 
156 161 
156 162 
156 163 
156 170 
156 171 
156 172 
156 173 
156 174 
156 175 
157 158 
157 159 
157 160 
157 161 
157 162 
157 164 
157 170 
157 176 
157 177 
157 178 
157 179 
157 180 
158 159 
158 160 
158 161 
158 162 
158 165 
158 171 
158 176 
158 181 
158 182 
158 183 
158 184 
159 160 
159 161 
159 162 
159 166 
159 172 
159 177 
159 181 
159 185 
159 186 
159 187 
160 161 
160 162 
160 167 
160 173 
160 178 
160 182 
160 185 
160 188 
160 189 
161 162 
161 168 
161 174 
161 179 
161 183 
161 186 
161 188 
161 190 
162 169 
162 175 
162 180 
162 184 
162 187 
162 189 
162 190 
163 164 
163 165 
163 166 
163 167 
163 168 
163 169 
163 170 
163 171 
163 172 
163 173 
163 174 
163 175 
164 165 
164 166 
164 167 
164 168 
164 169 
164 170 
164 176 
164 177 
164 178 
164 179 
164 180 
165 166 
165 167 
165 168 
165 169 
165 171 
165 176 
165 181 
165 182 
165 183 
165 184 
166 167 
166 168 
166 169 
166 172 
166 177 
166 181 
166 185 
166 186 
166 187 
167 168 
167 169 
167 173 
167 178 
167 182 
167 185 
167 188 
167 189 
168 169 
168 174 
168 179 
168 183 
168 186 
168 188 
168 190 
169 175 
169 180 
169 184 
169 187 
169 189 
169 190 
170 171 
170 172 
170 173 
170 174 
170 175 
170 176 
170 177 
170 178 
170 179 
170 180 
171 172 
171 173 
171 174 
171 175 
171 176 
171 181 
171 182 
171 183 
171 184 
172 173 
172 174 
172 175 
172 177 
172 181 
172 185 
172 186 
172 187 
173 174 
173 175 
173 178 
173 182 
173 185 
173 188 
173 189 
174 175 
174 179 
174 183 
174 186 
174 188 
174 190 
175 180 
175 184 
175 187 
175 189 
175 190 
176 177 
176 178 
176 179 
176 180 
176 181 
176 182 
176 183 
176 184 
177 178 
177 179 
177 180 
177 181 
177 185 
177 186 
177 187 
178 179 
178 180 
178 182 
178 185 
178 188 
178 189 
179 180 
179 183 
179 186 
179 188 
179 190 
180 184 
180 187 
180 189 
180 190 
181 182 
181 183 
181 184 
181 185 
181 186 
181 187 
182 183 
182 184 
182 185 
182 188 
182 189 
183 184 
183 186 
183 188 
183 190 
184 187 
184 189 
184 190 
185 186 
185 187 
185 188 
185 189 
186 187 
186 188 
186 190 
187 189 
187 190 
188 189 
188 190 
189 190 
